* SCIP STATISTICS
*   Problem name     : util.zpl
*   Variables        : 146 (28 binary, 0 integer, 0 implicit integer, 118 continuous)
*   Constraints      : 168
*   Obj. scale       : 1
*   Obj. offset      : 0
NAME          util.zpl
ROWS
 N  Obj 
 E  c0 
 E  c1 
 E  c2 
 E  c3 
 E  c4 
 E  c5 
 E  c6 
 E  c7 
 E  c8 
 E  c9 
 E  c10 
 G  c11 
 E  c12 
 E  c13 
 E  c14 
 E  c15 
 E  c16 
 E  c17 
 E  c18 
 E  c19 
 E  c20 
 E  c21 
 E  c22 
 E  c23 
 E  c24 
 E  c25 
 E  c26 
 E  c27 
 E  c28 
 E  c29 
 E  c30 
 E  c31 
 E  c32 
 E  c33 
 E  c34 
 E  c35 
 E  c36 
 E  c37 
 E  c38 
 E  c39 
 E  c40 
 E  c41 
 E  c42 
 E  c43 
 E  c44 
 E  c45 
 E  c46 
 E  c47 
 E  c48 
 E  c49 
 E  c50 
 E  c51 
 E  c52 
 E  c53 
 E  c54 
 E  c55 
 E  c56 
 E  c57 
 E  c58 
 E  c59 
 E  c60 
 E  c61 
 E  c62 
 E  c63 
 E  c64 
 E  c65 
 E  c66 
 E  c67 
 E  c68 
 E  c69 
 E  c70 
 E  c71 
 E  c72 
 E  c73 
 E  c74 
 L  c75 
 E  c76 
 L  c77 
 L  c78 
 L  c79 
 L  c80 
 L  c81 
 L  c82 
 L  c83 
 L  c84 
 L  c85 
 L  c86 
 L  c87 
 L  c88 
 L  c89 
 L  c90 
 L  c91 
 L  c92 
 L  c93 
 L  c94 
 L  c95 
 L  c96 
 L  c97 
 L  c98 
 L  c99 
 L  c100 
 L  c101 
 L  c102 
 L  c103 
 L  c104 
 L  c105 
 L  c106 
 L  c107 
 L  c108 
 L  c109 
 L  c110 
 L  c111 
 L  c112 
 L  c113 
 L  c114 
 E  c115 
 E  c116 
 E  c117 
 E  c118 
 E  c119 
 E  c120 
 E  c121 
 E  c122 
 E  c123 
 E  c124 
 E  c125 
 E  c126 
 E  c127 
 E  c128 
 E  c129 
 E  c130 
 E  c131 
 E  c132 
 E  c133 
 L  c134 
 L  c135 
 L  c136 
 L  c137 
 L  c138 
 L  c139 
 L  c140 
 L  c141 
 L  c142 
 L  c143 
 L  c144 
 L  c145 
 E  c146 
 E  c147 
 E  c148 
 E  c149 
 E  c150 
 E  c151 
 E  c152 
 E  c153 
 E  c154 
 E  c155 
 E  c156 
 E  c157 
 E  c158 
 E  c159 
 E  c160 
 E  c161 
 E  c162 
 E  c163 
 E  c164 
 E  c165 
 E  c166 
 E  c167 
COLUMNS
    INTSTART  'MARKER'                            'INTORG'                           
    x0        c134                          -300  c86                           -100 
    x0        c152                             1  c83                           -100 
    x1        c135                          -300  c87                           -100 
    x1        c84                           -100  c153                             1 
    x2        c89                           -100  c154                             1 
    x2        c117                          -444  c102                          -100 
    x3        c118                          -100  c90                           -100 
    x3        c103                          -100  c155                             1 
    x4        c156                             1  c91                             -1 
    x4        c119                          -125  c104                          -100 
    x5        c93                           -100  c121                           -75 
    x5        c157                             1  c105                          -100 
    x6        c158                             1  c106                          -100 
    x6        c122                           -60  c94                           -100 
    x7        c107                          -100  c95                           -100 
    x7        c159                             1  c123                           -36 
    x8        c108                          -100  c96                           -100 
    x8        c160                             1  c124                           -26 
    x9        c109                          -100  c161                             1 
    x9        c97                           -100  c125                          -445 
    x10       c110                          -100  c162                             1 
    x10       c136                          -300  c98                           -100 
    x11       c111                          -100  c137                          -300 
    x11       c99                           -100  c163                             1 
    x12       c164                             1  c100                          -100 
    x12       c138                          -300  c112                          -100 
    x13       c113                          -100  c139                          -300 
    x13       c166                             1  c165                             1 
    x13       c101                          -100 
    x14       c154                             1  c126                          -444 
    x15       c127                          -100  c155                             1 
    x16       c156                             1  c128                          -125 
    x17       c157                             1  c129                           -75 
    x18       c158                             1  c130                           -60 
    x19       c159                             1  c131                           -36 
    x20       c160                             1  c132                           -26 
    x21       c161                             1  c133                          -445 
    x22       c140                          -300  c152                             1 
    x23       c141                          -300  c153                             1 
    x23       c166                             1 
    x24       c162                             1  c142                          -300 
    x25       c163                             1  c143                          -300 
    x26       c164                             1  c144                          -300 
    x27       c145                          -300  c165                             1 
    INTEND    'MARKER'                            'INTEND'                           
    x28       c18                              1  c17                     -116.41403 
    x28       c167                      -87.3969 
    x29       c167                      -0.03781  c126                             1 
    x30       c127                             1  c167                      -0.03781 
    x31       c167                      -0.03781  c128                             1 
    x32       c167                      -0.03781  c129                             1 
    x33       c130                             1  c167                      -0.03781 
    x34       c167                      -0.03781  c131                             1 
    x35       c167                      -0.03781  c132                             1 
    x36       c133                             1  c167                      -0.03781 
    x37       c167                      -0.03781  c146                             1 
    x37       c140                          0.01 
    x38       c167                      -0.03781  c147                             1 
    x38       c141                          0.01 
    x39       c148                             1  c167                      -0.03781 
    x39       c142                          0.01 
    x40       c143                          0.01  c149                             1 
    x40       c167                      -0.03781 
    x41       c150                             1  c144                          0.01 
    x41       c167                      -0.03781 
    x42       c151                             1  c145                          0.01 
    x42       c167                      -0.03781 
    x43       c5                               1  c167                          -0.3 
    x43       c0                         -0.5439  c4                              -1 
    x44       c64                       -0.33333  c63                              1 
    x44       c167                        -0.017 
    x45       c4                              -1  c24                             -1 
    x45       c0                         -0.5439 
    x46       c0                        -1.22963  c4                              -1 
    x47       c4                              -1  c0                        -2.74289 
    x48       c4                               1  c10                              1 
    x48       c12                           -0.5  c78                            0.1 
    x49       c0                        -6.94492  c3                        -6.94492 
    x49       c23                             -1  c4                              -1 
    x49       c6                           -0.08 
    x50       c4                               1  c6                               1 
    x51       c8                               1 
    x52       c9                               1  c8                        -0.34851 
    x53       c16                          -0.05  c10                             -1 
    x53       c15                              1 
    x54       c15                             -1  c1                        -3.22692 
    x54       c16                              1 
    x55       c1                        -9.05971  c15                             -1 
    x55       c80                            0.1  c21                              1 
    x56       c17                              1  c1                               1 
    x57       c1                              -1 
    x58       c22                              1  c10                             -1 
    x59       c85                            0.1  c2                         7.32917 
    x59       c26                             -1  c22                              1 
    x59       c30                       -7.32917 
    x60       c22                              1  c2                         7.70075 
    x60       c21                             -1 
    x61       c22                             -1  c3                         7.31039 
    x61       c23                              1  c2                        -7.31039 
    x62       c22                             -1  c2                        -7.31039 
    x62       c33                              1  c46                        7.31039 
    x62       c89                            0.1 
    x63       c22                             -1  c2                        -7.31039 
    x63       c34                              1  c47                        7.31039 
    x63       c90                            0.1 
    x64       c35                              1  c48                        7.31039 
    x64       c91                            0.1  c2                        -7.31039 
    x64       c22                             -1 
    x65       c49                        7.31039  c36                              1 
    x65       c92                            0.1  c2                        -7.31039 
    x65       c22                             -1 
    x66       c37                              1  c22                             -1 
    x66       c50                        7.31039  c93                            0.1 
    x66       c2                        -7.31039 
    x67       c2                        -7.31039  c94                            0.1 
    x67       c38                              1  c22                             -1 
    x67       c51                        7.31039 
    x68       c22                             -1  c2                        -7.31039 
    x68       c52                        7.31039  c39                              1 
    x68       c95                            0.1 
    x69       c22                             -1  c40                              1 
    x69       c2                        -7.31039  c53                        7.31039 
    x69       c96                            0.1 
    x70       c54                        7.31039  c22                             -1 
    x70       c41                              1  c97                            0.1 
    x70       c2                        -7.31039 
    x71       c55                        7.31039  c98                            0.1 
    x71       c22                             -1  c42                              1 
    x71       c2                        -7.31039 
    x72       c2                        -7.31039  c99                            0.1 
    x72       c43                              1  c22                             -1 
    x72       c56                        7.31039 
    x73       c2                        -7.31039  c57                        7.31039 
    x73       c44                              1  c22                             -1 
    x73       c100                           0.1 
    x74       c22                             -1  c101                           0.1 
    x74       c45                              1  c2                        -7.31039 
    x74       c58                        7.31039 
    x75       c2                        -7.31039  c22                             -1 
    x76       c10                             -1  c23                              1 
    x77       c3                         7.03739  c86                            0.1 
    x77       c31                       -7.03739  c23                              1 
    x77       c27                             -1 
    x78       c23                              1  c32                       -7.03739 
    x78       c3                         7.03739  c28                             -1 
    x78       c87                            0.1 
    x79       c46                       -6.91604  c3                         6.91604 
    x79       c23                              1  c102                           0.1 
    x79       c33                             -1 
    x80       c3                         6.91604  c34                             -1 
    x80       c23                              1  c103                           0.1 
    x80       c47                       -6.91604 
    x81       c48                       -6.91604  c3                         6.91604 
    x81       c35                             -1  c104                           0.1 
    x81       c23                              1 
    x82       c105                           0.1  c50                       -6.91604 
    x82       c3                         6.91604  c37                             -1 
    x82       c23                              1 
    x83       c3                         6.91604  c106                           0.1 
    x83       c51                       -6.91604  c38                             -1 
    x83       c23                              1 
    x84       c39                             -1  c52                       -6.91604 
    x84       c107                           0.1  c23                              1 
    x84       c3                         6.91604 
    x85       c23                              1  c53                       -6.91604 
    x85       c3                         6.91604  c40                             -1 
    x85       c108                           0.1 
    x86       c41                             -1  c23                              1 
    x86       c54                       -6.91604  c109                           0.1 
    x86       c3                         6.91604 
    x87       c23                              1  c55                       -6.91604 
    x87       c42                             -1  c3                         6.91604 
    x87       c110                           0.1 
    x88       c56                       -6.91604  c43                             -1 
    x88       c111                           0.1  c3                         6.91604 
    x88       c23                              1 
    x89       c112                           0.1  c23                              1 
    x89       c57                       -6.91604  c44                             -1 
    x89       c3                         6.91604 
    x90       c58                       -6.91604  c3                         6.91604 
    x90       c45                             -1  c23                              1 
    x90       c113                           0.1 
    x91       c3                        -6.94492  c23                             -1 
    x92       c3                        -6.94492  c23                             -1 
    x93       c5                              -1 
    x94       c5                              -1 
    x95       c7                         0.05391 
    x96       c9                        -0.18673  c7                              -1 
    x97       c11                              1  c10                             -1 
    x98       c12                              1  c13                       -1.89474 
    x99       c146                            -1  c13                              1 
    x99       c14                              1 
    x100      c147                            -1  c14                             -1 
    x101      c19                      -23.39292  c18                             -1 
    x102      c19                              1  c20                       -3.61341 
    x102      c79                            0.1 
    x103      c20                              1  c148                            -1 
    x104      c21                              1 
    x105      c21                             -1  c81                            0.1 
    x105      c29                        7.70075  c25                              1 
    x106      c30                        7.70075  c82                            0.1 
    x106      c21                             -1  c26                              1 
    x107      c21                             -1  c27                              1 
    x107      c83                            0.1  c31                        7.70075 
    x108      c21                             -1  c32                        7.70075 
    x108      c28                              1  c84                            0.1 
    x109      c21                             -1 
    x110      c75                           0.01  c24                              1 
    x110      c59                              1  c61                         5.6972 
    x111      c77                           0.01  c24                              1 
    x111      c60                              1  c62                         5.6972 
    x112      c29                       -6.08959  c59                             -1 
    x112      c88                            0.1  c25                             -1 
    x113      c29                       -0.00641  c115                          0.01 
    x114      c30                       -0.00641  c116                          0.01 
    x115      c146                             1  c31                       -0.00641 
    x115      c134                          0.01 
    x116      c147                             1  c32                       -0.00641 
    x116      c135                          0.01 
    x117      c60                             -1  c49                       -5.77083 
    x117      c36                             -1  c114                           0.1 
    x118      c46                       -0.00641  c117                             1 
    x119      c118                             1  c47                       -0.00641 
    x120      c48                       -0.00641  c119                             1 
    x121      c120                          0.01  c49                       -0.00641 
    x122      c50                       -0.00641  c121                             1 
    x123      c51                       -0.00641  c122                             1 
    x124      c52                       -0.00641  c123                             1 
    x125      c53                       -0.00641  c124                             1 
    x126      c125                             1  c54                       -0.00641 
    x127      c136                          0.01  c148                             1 
    x127      c55                       -0.00641 
    x128      c149                             1  c137                          0.01 
    x128      c56                       -0.00641 
    x129      c150                             1  c57                       -0.00641 
    x129      c138                          0.01 
    x130      c139                          0.01  c151                             1 
    x130      c58                       -0.00641 
    x131      c61                       -0.12983  c63                             -1 
    x132      c63                             -1  c62                       -0.12983 
    x133      c65                       -0.20286  c64                              1 
    x134      c65                              1  c149                            -1 
    x134      c67                              1  c66                              1 
    x135      c150                            -1  c66                             -1 
    x136      c151                            -1  c67                             -1 
    x137      c68                              1  c72                              1 
    x137      c73                              1  c80                           -100 
    x138      c69                              1  c88                           -100 
    x138      c81                           -100  c115                       -163.03 
    x138      c74                              1 
    x139      c70                              1  c82                           -100 
    x139      c85                           -100  c116                           -56 
    x140      c71                              1  c92                           -100 
    x140      c76                              1  c120                         -94.5 
    x140      c114                          -100 
    x141      c78                           -100  c72                             -1 
    x142      c79                           -100  c73                             -1 
    x143      c75                           -100  c74                             -1 
    x144      c76                             -1  c77                           -100 
    x145      Obj                              1  c167                             1 
RHS
    RHS       c7                         4.45329  c8                         6.04388 
    RHS       c9                         0.82639  c11                      104.21999 
    RHS       c13                            230  c18                          4.035 
    RHS       c63                           4117  c68                              1 
    RHS       c69                              1  c70                              1 
    RHS       c71                              1  c152                             1 
    RHS       c153                             1  c154                             1 
    RHS       c155                             1  c156                             1 
    RHS       c157                             1  c158                             1 
    RHS       c159                             1  c160                             1 
    RHS       c161                             1  c162                             1 
    RHS       c163                             1  c164                             1 
    RHS       c165                             1 
BOUNDS
 BV Bound     x0                                 
 BV Bound     x1                                 
 BV Bound     x2                                 
 BV Bound     x3                                 
 BV Bound     x4                                 
 BV Bound     x5                                 
 BV Bound     x6                                 
 BV Bound     x7                                 
 BV Bound     x8                                 
 BV Bound     x9                                 
 BV Bound     x10                                
 BV Bound     x11                                
 BV Bound     x12                                
 BV Bound     x13                                
 BV Bound     x14                                
 BV Bound     x15                                
 BV Bound     x16                                
 BV Bound     x17                                
 BV Bound     x18                                
 BV Bound     x19                                
 BV Bound     x20                                
 BV Bound     x21                                
 BV Bound     x22                                
 BV Bound     x23                                
 BV Bound     x24                                
 BV Bound     x25                                
 BV Bound     x26                                
 BV Bound     x27                                
 PL Bound     x28                                
 PL Bound     x29                                
 PL Bound     x30                                
 PL Bound     x31                                
 PL Bound     x32                                
 PL Bound     x33                                
 PL Bound     x34                                
 PL Bound     x35                                
 PL Bound     x36                                
 PL Bound     x37                                
 PL Bound     x38                                
 PL Bound     x39                                
 PL Bound     x40                                
 PL Bound     x41                                
 PL Bound     x42                                
 PL Bound     x43                                
 PL Bound     x44                                
 PL Bound     x45                                
 UP Bound     x46                           29.2 
 UP Bound     x47                            1.2 
 PL Bound     x48                                
 PL Bound     x49                                
 PL Bound     x50                                
 PL Bound     x51                                
 PL Bound     x52                                
 PL Bound     x53                                
 PL Bound     x54                                
 PL Bound     x55                                
 PL Bound     x56                                
 LO Bound     x57                         353.66 
 PL Bound     x57                                
 PL Bound     x58                                
 PL Bound     x59                                
 PL Bound     x60                                
 PL Bound     x61                                
 PL Bound     x62                                
 PL Bound     x63                                
 PL Bound     x64                                
 PL Bound     x65                                
 PL Bound     x66                                
 PL Bound     x67                                
 PL Bound     x68                                
 PL Bound     x69                                
 PL Bound     x70                                
 PL Bound     x71                                
 PL Bound     x72                                
 PL Bound     x73                                
 PL Bound     x74                                
 LO Bound     x75                           32.8 
 PL Bound     x75                                
 PL Bound     x76                                
 PL Bound     x77                                
 PL Bound     x78                                
 PL Bound     x79                                
 PL Bound     x80                                
 PL Bound     x81                                
 PL Bound     x82                                
 PL Bound     x83                                
 PL Bound     x84                                
 PL Bound     x85                                
 PL Bound     x86                                
 PL Bound     x87                                
 PL Bound     x88                                
 PL Bound     x89                                
 PL Bound     x90                                
 PL Bound     x91                                
 LO Bound     x92                           24.1 
 PL Bound     x92                                
 PL Bound     x93                                
 UP Bound     x94                             21 
 PL Bound     x95                                
 LO Bound     x96                            1.2 
 UP Bound     x96                            2.2 
 PL Bound     x97                                
 PL Bound     x98                                
 PL Bound     x99                                
 PL Bound     x100                               
 PL Bound     x101                               
 PL Bound     x102                               
 PL Bound     x103                               
 UP Bound     x104                         98.72 
 PL Bound     x105                               
 PL Bound     x106                               
 PL Bound     x107                               
 PL Bound     x108                               
 LO Bound     x109                           8.7 
 PL Bound     x109                               
 PL Bound     x110                               
 PL Bound     x111                               
 PL Bound     x112                               
 PL Bound     x113                               
 PL Bound     x114                               
 PL Bound     x115                               
 PL Bound     x116                               
 PL Bound     x117                               
 PL Bound     x118                               
 PL Bound     x119                               
 PL Bound     x120                               
 PL Bound     x121                               
 PL Bound     x122                               
 PL Bound     x123                               
 PL Bound     x124                               
 PL Bound     x125                               
 PL Bound     x126                               
 PL Bound     x127                               
 PL Bound     x128                               
 PL Bound     x129                               
 PL Bound     x130                               
 PL Bound     x131                               
 PL Bound     x132                               
 PL Bound     x133                               
 PL Bound     x134                               
 PL Bound     x135                               
 PL Bound     x136                               
 PL Bound     x137                               
 PL Bound     x138                               
 PL Bound     x139                               
 PL Bound     x140                               
 PL Bound     x141                               
 PL Bound     x142                               
 PL Bound     x143                               
 PL Bound     x144                               
 PL Bound     x145                               
QCMATRIX c0
    x52       x48                            0.5 
    x48       x52                            0.5 
    x51       x50                            0.5 
    x50       x51                            0.5 
QCMATRIX c1
    x53       x52                            0.5 
    x52       x53                            0.5 
QCMATRIX c2
    x58       x52                            0.5 
    x52       x58                            0.5 
QCMATRIX c3
    x76       x52                            0.5 
    x52       x76                            0.5 
ENDATA